
Gurobi 8.1.1 (win64, Python) logging started 09/16/19 10:23:18

Academic license - for non-commercial use only
Optimize a model with 4866 rows, 77600 columns and 155200 nonzeros
Coefficient statistics:
  Matrix range     [1e+00, 1e+00]
  Objective range  [6e-05, 5e-01]
  Bounds range     [0e+00, 0e+00]
  RHS range        [6e+02, 5e+05]

Concurrent LP optimizer: primal simplex, dual simplex, and barrier
Showing barrier log only...

Presolve time: 0.05s
Presolved: 4866 rows, 77600 columns, 155200 nonzeros

Ordering time: 0.00s

Barrier statistics:
 AA' NZ     : 7.760e+04
 Factor NZ  : 8.299e+04 (roughly 34 MBytes of memory)
 Factor Ops : 1.425e+06 (less than 1 second per iteration)
 Threads    : 6

                  Objective                Residual
Iter       Primal          Dual         Primal    Dual     Compl     Time
   0   1.41546113e+08  0.00000000e+00  4.26e+07 0.00e+00  3.31e+03     0s
   1   9.74690372e+06 -1.26715589e+06  2.83e+06 3.33e-16  2.49e+02     0s
   2   9.16830693e+05 -6.85549576e+05  0.00e+00 3.33e-16  1.94e+01     0s
   3   6.33968746e+05 -5.73380354e+03  0.00e+00 2.22e-16  7.76e+00     0s
   4   4.01192263e+05  7.96734249e+04  0.00e+00 2.22e-16  3.90e+00     0s
   5   3.30036737e+05  1.49341948e+05  0.00e+00 2.22e-16  2.19e+00     0s
   6   2.60323603e+05  1.86859277e+05  0.00e+00 2.22e-16  8.91e-01     0s
   7   2.47127319e+05  2.02374769e+05  0.00e+00 3.33e-16  5.43e-01     0s
   8   2.40633145e+05  2.10747633e+05  0.00e+00 3.33e-16  3.62e-01     0s
   9   2.35330286e+05  2.14492361e+05  0.00e+00 3.33e-16  2.53e-01     0s
  10   2.25542376e+05  2.15971268e+05  0.00e+00 3.33e-16  1.16e-01     0s
  11   2.24342181e+05  2.17423317e+05  0.00e+00 4.44e-16  8.39e-02     0s
  12   2.22028755e+05  2.17772823e+05  0.00e+00 4.44e-16  5.16e-02     0s
  13   2.21856460e+05  2.17856988e+05  0.00e+00 3.33e-16  4.85e-02     0s
  14   2.21067103e+05  2.18179323e+05  0.00e+00 3.33e-16  3.50e-02     0s
  15   2.20124673e+05  2.18373987e+05  0.00e+00 3.33e-16  2.12e-02     0s
  16   2.19785978e+05  2.18494018e+05  0.00e+00 2.22e-16  1.57e-02     0s
  17   2.19281493e+05  2.18581683e+05  0.00e+00 2.22e-16  8.49e-03     0s
  18   2.18974346e+05  2.18612856e+05  0.00e+00 2.22e-16  4.38e-03     0s
  19   2.18879719e+05  2.18619371e+05  0.00e+00 2.22e-16  3.16e-03     0s
  20   2.18748187e+05  2.18625439e+05  0.00e+00 2.22e-16  1.49e-03     0s
  21   2.18714281e+05  2.18627638e+05  0.00e+00 2.22e-16  1.05e-03     0s
  22   2.18702012e+05  2.18629117e+05  0.00e+00 2.22e-16  8.84e-04     0s
  23   2.18660038e+05  2.18629531e+05  0.00e+00 2.22e-16  3.70e-04     0s
  24   2.18630740e+05  2.18630697e+05  0.00e+00 3.33e-16  5.20e-07     0s
  25   2.18630711e+05  2.18630709e+05  0.00e+00 2.64e-12  2.40e-08     0s
  26   2.18630709e+05  2.18630709e+05  0.00e+00 6.96e-13  1.85e-09     0s

Barrier solved model in 26 iterations and 0.44 seconds
Optimal objective 2.18630709e+05

Crossover log...

     660 PPushes remaining with PInf 0.0000000e+00                 0s
       0 PPushes remaining with PInf 0.0000000e+00                 0s

  Push phase complete: Pinf 0.0000000e+00, Dinf 5.5511151e-17      0s

Iteration    Objective       Primal Inf.    Dual Inf.      Time
     663    2.1863071e+05   0.000000e+00   0.000000e+00      0s

Solved with barrier
Solved in 663 iterations and 0.46 seconds
Optimal objective  2.186307091e+05
